12 -31 -32 0
14 30 -12 0
-31 -32 -33 0
-14 31 -32 0
14 30 0
d 11 14 30 0
14 -33 0
-32 -33 0
d -31 -32 -33 0
32 10 0
d 3 32 10 0
-14 -33 0
d -14 -10 -33 0
-33 0
-12 -14 0
d -17 -12 -14 0
-14 -10 0
32 0
14 0
-12 0
-10 0
-9 0
31 0
15 0
0
